files/upTests/set-of-sets_nested_literals/0001.eprime
language ESSENCE' 1.0

find x_SetExplicit_SetExplicitVarSize_tuple1:
        matrix indexed by [int(1..1), int(1..2)] of bool
find x_SetExplicit_SetExplicitVarSize_tuple2_SetExplicitVarSize_tuple1:
        matrix indexed by [int(1..1), int(1..2), int(1..2)] of bool
find x_SetExplicit_SetExplicitVarSize_tuple2_SetExplicitVarSize_tuple2:
        matrix indexed by [int(1..1), int(1..2), int(1..2)] of int(2..3)
such that
    x_SetExplicit_SetExplicitVarSize_tuple1[1, 1]
    /\
    x_SetExplicit_SetExplicitVarSize_tuple1[1, 2]
    ->
    (sum v__0 : int(1..2)
         . x_SetExplicit_SetExplicitVarSize_tuple2_SetExplicitVarSize_tuple1[1, 1, v__0]
           *
           1)
    <
    (sum v__0 : int(1..2)
         . x_SetExplicit_SetExplicitVarSize_tuple2_SetExplicitVarSize_tuple1[1, 2, v__0]
           *
           1)
    \/
    (sum v__0 : int(1..2)
         . x_SetExplicit_SetExplicitVarSize_tuple2_SetExplicitVarSize_tuple1[1, 1, v__0]
           *
           1)
    =
    (sum v__0 : int(1..2)
         . x_SetExplicit_SetExplicitVarSize_tuple2_SetExplicitVarSize_tuple1[1, 2, v__0]
           *
           1)
    /\
    (exists v__0 : int(1..2)
         . x_SetExplicit_SetExplicitVarSize_tuple2_SetExplicitVarSize_tuple1[1, 1, v__0]
           /\
           x_SetExplicit_SetExplicitVarSize_tuple2_SetExplicitVarSize_tuple1[1, 2, v__0]
           /\
           (x_SetExplicit_SetExplicitVarSize_tuple2_SetExplicitVarSize_tuple2[1, 1, v__0]
            <
            x_SetExplicit_SetExplicitVarSize_tuple2_SetExplicitVarSize_tuple2[1, 2, v__0]
            /\
            (forAll v__1 : int(1..2)
                 . v__1 < v__0
                   /\
                   x_SetExplicit_SetExplicitVarSize_tuple2_SetExplicitVarSize_tuple1[1, 1, v__1]
                   /\
                   x_SetExplicit_SetExplicitVarSize_tuple2_SetExplicitVarSize_tuple1[1, 2, v__1]
                   ->
                   x_SetExplicit_SetExplicitVarSize_tuple2_SetExplicitVarSize_tuple2[1, 1, v__1]
                   =
                   x_SetExplicit_SetExplicitVarSize_tuple2_SetExplicitVarSize_tuple2[1,
                                                                                     2,
                                                                                     v__1]))),
    x_SetExplicit_SetExplicitVarSize_tuple1[1, 1]
    <=
    x_SetExplicit_SetExplicitVarSize_tuple1[1, 2],
    (sum v__0 : int(1..2) . x_SetExplicit_SetExplicitVarSize_tuple1[1, v__0]) >= 1,
    exists v__0 : int(1..2)
        . x_SetExplicit_SetExplicitVarSize_tuple1[1, v__0]
          /\
          ((forAll v__1 : int(1..2)
                . x_SetExplicit_SetExplicitVarSize_tuple2_SetExplicitVarSize_tuple1[1,
                                                                                    v__0,
                                                                                    v__1]
                  ->
                  2
                  =
                  x_SetExplicit_SetExplicitVarSize_tuple2_SetExplicitVarSize_tuple2[1,
                                                                                    v__0,
                                                                                    v__1])
           /\
           (exists v__1 : int(1..2)
                . x_SetExplicit_SetExplicitVarSize_tuple2_SetExplicitVarSize_tuple1[1,
                                                                                    v__0,
                                                                                    v__1]
                  /\
                  x_SetExplicit_SetExplicitVarSize_tuple2_SetExplicitVarSize_tuple2[1, v__0, v__1]
                  =
                  2)),
    exists v__0 : int(1..2)
        . x_SetExplicit_SetExplicitVarSize_tuple1[1, v__0]
          /\
          ((forAll v__1 : int(1..2)
                . x_SetExplicit_SetExplicitVarSize_tuple2_SetExplicitVarSize_tuple1[1,
                                                                                    v__0,
                                                                                    v__1]
                  ->
                  2
                  =
                  x_SetExplicit_SetExplicitVarSize_tuple2_SetExplicitVarSize_tuple2[1, v__0, v__1]
                  \/
                  3
                  =
                  x_SetExplicit_SetExplicitVarSize_tuple2_SetExplicitVarSize_tuple2[1,
                                                                                    v__0,
                                                                                    v__1])
           /\
           ((exists v__1 : int(1..2)
                 . x_SetExplicit_SetExplicitVarSize_tuple2_SetExplicitVarSize_tuple1[1,
                                                                                     v__0,
                                                                                     v__1]
                   /\
                   x_SetExplicit_SetExplicitVarSize_tuple2_SetExplicitVarSize_tuple2[1, v__0, v__1]
                   =
                   2)
            /\
            (exists v__1 : int(1..2)
                 . x_SetExplicit_SetExplicitVarSize_tuple2_SetExplicitVarSize_tuple1[1,
                                                                                     v__0,
                                                                                     v__1]
                   /\
                   x_SetExplicit_SetExplicitVarSize_tuple2_SetExplicitVarSize_tuple2[1, v__0, v__1]
                   =
                   3))),
    forAll v__0 : int(1..2)
        . x_SetExplicit_SetExplicitVarSize_tuple1[1, v__0]
          ->
          (exists v__1 : int(1..2)
               . x_SetExplicit_SetExplicitVarSize_tuple2_SetExplicitVarSize_tuple1[1,
                                                                                   v__0,
                                                                                   v__1]
                 /\
                 x_SetExplicit_SetExplicitVarSize_tuple2_SetExplicitVarSize_tuple2[1, v__0, v__1]
                 =
                 2)
          /\
          (exists v__1 : int(1..2)
               . x_SetExplicit_SetExplicitVarSize_tuple2_SetExplicitVarSize_tuple1[1,
                                                                                   v__0,
                                                                                   v__1]
                 /\
                 x_SetExplicit_SetExplicitVarSize_tuple2_SetExplicitVarSize_tuple2[1, v__0, v__1]
                 =
                 3)
          /\
          (forAll v__1 : int(1..2)
               . x_SetExplicit_SetExplicitVarSize_tuple2_SetExplicitVarSize_tuple1[1,
                                                                                   v__0,
                                                                                   v__1]
                 ->
                 2
                 =
                 x_SetExplicit_SetExplicitVarSize_tuple2_SetExplicitVarSize_tuple2[1, v__0, v__1]
                 \/
                 3
                 =
                 x_SetExplicit_SetExplicitVarSize_tuple2_SetExplicitVarSize_tuple2[1,
                                                                                   v__0,
                                                                                   v__1])
          \/
          (exists v__1 : int(1..2)
               . x_SetExplicit_SetExplicitVarSize_tuple2_SetExplicitVarSize_tuple1[1,
                                                                                   v__0,
                                                                                   v__1]
                 /\
                 x_SetExplicit_SetExplicitVarSize_tuple2_SetExplicitVarSize_tuple2[1, v__0, v__1]
                 =
                 2)
          /\
          (forAll v__1 : int(1..2)
               . x_SetExplicit_SetExplicitVarSize_tuple2_SetExplicitVarSize_tuple1[1,
                                                                                   v__0,
                                                                                   v__1]
                 ->
                 2
                 =
                 x_SetExplicit_SetExplicitVarSize_tuple2_SetExplicitVarSize_tuple2[1,
                                                                                   v__0,
                                                                                   v__1]),
    forAll v__0 : int(1..2)
        . (x_SetExplicit_SetExplicitVarSize_tuple2_SetExplicitVarSize_tuple1[1, v__0, 1]
           /\
           x_SetExplicit_SetExplicitVarSize_tuple2_SetExplicitVarSize_tuple1[1, v__0, 2]
           ->
           x_SetExplicit_SetExplicitVarSize_tuple2_SetExplicitVarSize_tuple2[1, v__0, 1]
           <
           x_SetExplicit_SetExplicitVarSize_tuple2_SetExplicitVarSize_tuple2[1, v__0, 2])
          /\
          x_SetExplicit_SetExplicitVarSize_tuple2_SetExplicitVarSize_tuple1[1, v__0, 1]
          <=
          x_SetExplicit_SetExplicitVarSize_tuple2_SetExplicitVarSize_tuple1[1, v__0, 2],
    forAll v__0 : int(1..2)
        . (sum v__1 : int(1..2)
               . x_SetExplicit_SetExplicitVarSize_tuple2_SetExplicitVarSize_tuple1[1,
                                                                                   v__0,
                                                                                   v__1])
          >=
          1
