files/upTests/set-of-sets_nested_literals/0001.eprime.solution
language ESSENCE' 1.0
$ minion Nodes: 2
$ minion TotalTime: 0.002155
$ Savile Row TotalTime: 0.509
letting x_SetExplicit_SetExplicitVarSize_tuple2_SetExplicitVarSize_tuple2 be [[[2, 3;int(1..2)], 
[2, 2;int(1..2)];int(1..2)];int(1..1)]
letting x_SetExplicit_SetExplicitVarSize_tuple2_SetExplicitVarSize_tuple1 be [[[true, true;int(1..2)], 
[true, false;int(1..2)];int(1..2)];int(1..1)]
letting x_SetExplicit_SetExplicitVarSize_tuple1 be [[true, true;int(1..2)];int(1..1)]
